(set-logic QF_S)
(declare-fun var0 () String)
(assert (RegexIn var0 (RegexConcat (RegexStar (RegexPlus (Str2Reg "0"))) (RegexConcat (RegexPlus (RegexUnion (Str2Reg "111") (Str2Reg "222"))) (RegexConcat (RegexPlus (RegexPlus (Str2Reg "33"))) (RegexConcat (RegexStar (RegexUnion (Str2Reg "4") (Str2Reg "5"))) (RegexConcat (RegexPlus (RegexStar (Str2Reg "666"))) (RegexConcat (RegexStar (RegexStar (Str2Reg "77"))) (RegexConcat (RegexPlus (RegexUnion (Str2Reg "8") (Str2Reg "9"))) (RegexConcat (RegexUnion (RegexPlus (Str2Reg "aa")) (RegexPlus (Str2Reg "bb"))) (RegexConcat (RegexUnion (RegexUnion (Str2Reg "cc") (Str2Reg "d")) (RegexUnion (Str2Reg "eee") (Str2Reg "fff"))) (RegexConcat (RegexPlus (RegexPlus (Str2Reg "gg"))) (RegexConcat (RegexUnion (RegexUnion (Str2Reg "hh") (Str2Reg "ii")) (RegexUnion (Str2Reg "jjj") (Str2Reg "kkk"))) (RegexConcat (RegexPlus (RegexPlus (Str2Reg "lll"))) (RegexConcat (RegexStar (RegexStar (Str2Reg "m"))) (RegexConcat (RegexStar (RegexPlus (Str2Reg "n"))) (RegexConcat (RegexPlus (RegexPlus (Str2Reg "oo"))) (RegexStar (RegexStar (Str2Reg "ppp"))))))))))))))))))))
(assert (not (RegexIn var0 (RegexConcat (RegexStar (RegexStar (Str2Reg "0"))) (RegexConcat (RegexStar (RegexPlus (Str2Reg "111"))) (RegexConcat (RegexStar (RegexPlus (Str2Reg "2"))) (RegexConcat (RegexStar (RegexStar (Str2Reg "333"))) (RegexConcat (RegexPlus (RegexPlus (Str2Reg "444"))) (RegexConcat (RegexStar (RegexStar (Str2Reg "55"))) (RegexConcat (RegexUnion (RegexStar (Str2Reg "66")) (RegexStar (Str2Reg "777"))) (RegexConcat (RegexStar (RegexUnion (Str2Reg "888") (Str2Reg "999"))) (RegexConcat (RegexUnion (RegexStar (Str2Reg "aa")) (RegexStar (Str2Reg "bbb"))) (RegexConcat (RegexStar (RegexStar (Str2Reg "cc"))) (RegexConcat (RegexUnion (RegexUnion (Str2Reg "dd") (Str2Reg "eee")) (RegexUnion (Str2Reg "ff") (Str2Reg "gg"))) (RegexConcat (RegexPlus (RegexPlus (Str2Reg "h"))) (RegexConcat (RegexUnion (RegexUnion (Str2Reg "i") (Str2Reg "j")) (RegexUnion (Str2Reg "kkk") (Str2Reg "lll"))) (RegexConcat (RegexPlus (RegexUnion (Str2Reg "mmm") (Str2Reg "nn"))) (RegexConcat (RegexUnion (RegexPlus (Str2Reg "ooo")) (RegexPlus (Str2Reg "p"))) (RegexUnion (RegexStar (Str2Reg "q")) (RegexStar (Str2Reg "rrr")))))))))))))))))))))
(check-sat)